
Gurobi 11.0.3 (linux64) logging started Wed Nov 12 20:08:55 2025

Set parameter LogFile to value "./log/train/CA_500_600_threads_0/CA_34.lp.log"
Set parameter TimeLimit to value 3600
Gurobi Optimizer version 11.0.3 build v11.0.3rc0 (linux64 - "Ubuntu 22.04.5 LTS")

CPU model: AMD Ryzen 9 9900X 12-Core Processor, instruction set [SSE2|AVX|AVX2|AVX512]
Thread count: 12 physical cores, 24 logical processors, using up to 24 threads

Optimize a model with 603 rows, 600 columns and 2929 nonzeros
Model fingerprint: 0xe8365e64
Variable types: 0 continuous, 600 integer (600 binary)
Coefficient statistics:
  Matrix range     [1e+00, 1e+00]
  Objective range  [2e-01, 1e+03]
  Bounds range     [1e+00, 1e+00]
  RHS range        [1e+00, 1e+00]
Found heuristic solution: objective 19270.085487
Presolve removed 35 rows and 81 columns
Presolve time: 0.01s
Presolved: 568 rows, 519 columns, 2903 nonzeros
Found heuristic solution: objective 22708.862456
Variable types: 0 continuous, 519 integer (519 binary)
Found heuristic solution: objective 23462.738112

Root relaxation: objective 3.030695e+04, 1314 iterations, 0.04 seconds (0.07 work units)

    Nodes    |    Current Node    |     Objective Bounds      |     Work
 Expl Unexpl |  Obj  Depth IntInf | Incumbent    BestBd   Gap | It/Node Time

     0     0 30306.9538    0  306 23462.7381 30306.9538  29.2%     -    0s
H    0     0                    25368.875850 30306.9538  19.5%     -    0s
H    0     0                    26144.835201 30306.9538  15.9%     -    0s
     0     0 30195.6638    0  316 26144.8352 30195.6638  15.5%     -    0s
     0     0 30045.1313    0  318 26144.8352 30045.1313  14.9%     -    0s
     0     0 30045.1313    0  318 26144.8352 30045.1313  14.9%     -    0s
     0     0 29963.1260    0  323 26144.8352 29963.1260  14.6%     -    0s
     0     0 29963.1260    0  323 26144.8352 29963.1260  14.6%     -    0s
H    0     0                    26762.977099 29963.1260  12.0%     -    0s
H    0     0                    26904.811851 29963.1260  11.4%     -    0s
     0     2 29963.1260    0  323 26904.8119 29963.1260  11.4%     -    0s
H   34    40                    26906.210248 29963.1260  11.4%   265    0s
H   78    88                    27555.406903 29963.1260  8.74%   203    0s
H   93   107                    27704.082004 29963.1260  8.15%   193    0s
H   98   107                    27793.634840 29963.1260  7.81%   191    0s
H 1596   719                    27812.626950 29442.5543  5.86%   114    1s
* 3182  1267              22    27902.865698 28907.8216  3.60%   109    1s
H 4031  1449                    27922.682644 28842.1475  3.29%   111    2s
 11817  1958     cutoff   27      27922.6826 28513.1717  2.11%   108    5s

Cutting planes:
  Gomory: 2
  Clique: 23
  Zero half: 2
  RLT: 1
  BQP: 1

Explored 21500 nodes (2060634 simplex iterations) in 6.50 seconds (17.11 work units)
Thread count was 24 (of 24 available processors)

Solution count 10: 27922.7 27902.9 27812.6 ... 26144.8

Optimal solution found (tolerance 1.00e-04)
Best objective 2.792268264395e+04, best bound 2.792268264395e+04, gap 0.0000%

User-callback calls 44672, time in user-callback 0.03 sec
